sat
(:max-memory                   18.17
 :memory                       18.03
 :nlsat-decisions              1
 :nlsat-irrational-assignments 1
 :nlsat-propagations           7
 :nlsat-stages                 4
 :num-allocs                   8142
 :rlimit-count                 2969
 :time                         0.00
 :total-time                   0.02)
